Cars = 1..100;
Options = 1..5;
Classes = 1..25;
sequenceMinCapacity = [0, 0, 0, 0, 0];
sequenceMaxCapacity = [1, 2, 1, 2, 1];
sequenceSize = [2, 3, 3, 5, 5];
numOrdered = [7, 11, 1, 3, 15, 2, 8, 5, 3, 4, 5, 2, 6, 2, 2, 4, 3, 5, 2, 4, 1, 1, 1, 1, 2];
classHasOption = [| true, false, false,  true, false
                  | true,  true, false, false, false
                  |false,  true,  true,  true,  true
                  | true, false,  true, false, false
                  |false,  true, false, false, false
                  | true, false,  true,  true, false
                  |false,  true, false,  true, false
                  |false, false,  true, false, false
                  |false, false, false,  true, false
                  |false,  true,  true,  true, false
                  | true, false, false, false, false
                  | true,  true,  true, false,  true
                  |false,  true,  true, false, false
                  |false, false,  true, false,  true
                  |false,  true, false, false,  true
                  | true,  true,  true,  true, false
                  | true, false, false, false,  true
                  | true,  true, false,  true, false
                  | true,  true,  true, false, false
                  | true,  true, false, false,  true
                  | true, false, false,  true,  true
                  | true,  true, false,  true,  true
                  |false,  true, false,  true,  true
                  |false,  true,  true, false,  true
                  |false, false, false, false,  true|];
optionOrdering = [1, 5, 3, 4, 2];
